100 70217

 608 48
675 211
591 855
517 920
828 651
120 622
814 994
690 695
688 540
902 709
217 191
56 315
366 901
699 563
504 661
744 780
767 562
925 900
455 758
104 113
77 170
230 468
914 678
258 921
264 14
331 715
993 288
182 907
893 189
768 914
550 155
688 567
27 694
276 722
652 888
299 471
957 75
799 277
91 940
480 645
573 343
458 425
451 571
365 511
859 857
675 182
351 458
655 918
400 851
253 833
781 64
881 839
803 260
459 193
699 655
917 616
499 972
950 406
971 726
926 754
508 943
304 721
501 93
803 430
598 654
166 434
415 404
462 434
920 112
114 929
433 375
992 59
356 43
928 207
695 780
207 296
768 118
235 532
442 222
355 166
515 643
208 156
709 184
853 90
125 94
138 13
339 973
537 834
68 805
573 945
541 742
383 834
19 804
683 438
450 538
74 587
573 968
939 876
665 936
276 811
